certificates/rado_a10_c26_N33.cnf
c Rad2 upper bound instance: x1 + 10*x2 - x3 = 26, interval [1,33]
p cnf 33 202
1 3 5 0
-1 -3 -5 0
1 4 15 0
-1 -4 -15 0
1 5 25 0
-1 -5 -25 0
2 3 6 0
-2 -3 -6 0
2 4 16 0
-2 -4 -16 0
2 5 26 0
-2 -5 -26 0
3 7 0
-3 -7 0
3 4 17 0
-3 -4 -17 0
3 5 27 0
-3 -5 -27 0
3 4 8 0
-3 -4 -8 0
4 18 0
-4 -18 0
4 5 28 0
-4 -5 -28 0
3 5 9 0
-3 -5 -9 0
4 5 19 0
-4 -5 -19 0
5 29 0
-5 -29 0
3 6 10 0
-3 -6 -10 0
4 6 20 0
-4 -6 -20 0
5 6 30 0
-5 -6 -30 0
1 2 7 0
-1 -2 -7 0
3 7 11 0
-3 -7 -11 0
4 7 21 0
-4 -7 -21 0
5 7 31 0
-5 -7 -31 0
2 8 0
-2 -8 0
3 8 12 0
-3 -8 -12 0
4 8 22 0
-4 -8 -22 0
5 8 32 0
-5 -8 -32 0
2 3 9 0
-2 -3 -9 0
3 9 13 0
-3 -9 -13 0
4 9 23 0
-4 -9 -23 0
5 9 33 0
-5 -9 -33 0
2 4 10 0
-2 -4 -10 0
3 10 14 0
-3 -10 -14 0
4 10 24 0
-4 -10 -24 0
2 5 11 0
-2 -5 -11 0
3 11 15 0
-3 -11 -15 0
4 11 25 0
-4 -11 -25 0
2 6 12 0
-2 -6 -12 0
3 12 16 0
-3 -12 -16 0
4 12 26 0
-4 -12 -26 0
2 7 13 0
-2 -7 -13 0
3 13 17 0
-3 -13 -17 0
4 13 27 0
-4 -13 -27 0
2 8 14 0
-2 -8 -14 0
3 14 18 0
-3 -14 -18 0
4 14 28 0
-4 -14 -28 0
2 9 15 0
-2 -9 -15 0
3 15 19 0
-3 -15 -19 0
4 15 29 0
-4 -15 -29 0
2 10 16 0
-2 -10 -16 0
3 16 20 0
-3 -16 -20 0
4 16 30 0
-4 -16 -30 0
1 17 0
-1 -17 0
2 11 17 0
-2 -11 -17 0
3 17 21 0
-3 -17 -21 0
4 17 31 0
-4 -17 -31 0
1 2 18 0
-1 -2 -18 0
2 12 18 0
-2 -12 -18 0
3 18 22 0
-3 -18 -22 0
4 18 32 0
-4 -18 -32 0
1 3 19 0
-1 -3 -19 0
2 13 19 0
-2 -13 -19 0
3 19 23 0
-3 -19 -23 0
4 19 33 0
-4 -19 -33 0
1 4 20 0
-1 -4 -20 0
2 14 20 0
-2 -14 -20 0
3 20 24 0
-3 -20 -24 0
1 5 21 0
-1 -5 -21 0
2 15 21 0
-2 -15 -21 0
3 21 25 0
-3 -21 -25 0
1 6 22 0
-1 -6 -22 0
2 16 22 0
-2 -16 -22 0
3 22 26 0
-3 -22 -26 0
1 7 23 0
-1 -7 -23 0
2 17 23 0
-2 -17 -23 0
3 23 27 0
-3 -23 -27 0
1 8 24 0
-1 -8 -24 0
2 18 24 0
-2 -18 -24 0
3 24 28 0
-3 -24 -28 0
1 9 25 0
-1 -9 -25 0
2 19 25 0
-2 -19 -25 0
3 25 29 0
-3 -25 -29 0
1 10 26 0
-1 -10 -26 0
2 20 26 0
-2 -20 -26 0
3 26 30 0
-3 -26 -30 0
1 11 27 0
-1 -11 -27 0
2 21 27 0
-2 -21 -27 0
3 27 31 0
-3 -27 -31 0
1 12 28 0
-1 -12 -28 0
2 22 28 0
-2 -22 -28 0
3 28 32 0
-3 -28 -32 0
1 13 29 0
-1 -13 -29 0
2 23 29 0
-2 -23 -29 0
3 29 33 0
-3 -29 -33 0
1 14 30 0
-1 -14 -30 0
2 24 30 0
-2 -24 -30 0
1 15 31 0
-1 -15 -31 0
2 25 31 0
-2 -25 -31 0
1 16 32 0
-1 -16 -32 0
2 26 32 0
-2 -26 -32 0
1 17 33 0
-1 -17 -33 0
2 27 33 0
-2 -27 -33 0
