certificates/rado_a10_c26_N33.drat
-29 -33 0
-31 11 -5 0
-2 -33 0
-5 -33 0
d -9 -5 -33 0
-33 0
-5 0
29 0
9 0
-3 0
1 0
7 0
27 0
-17 0
-13 0
-25 0
-23 0
-2 0
-11 0
4 0
0
